703892
0,6,209,182,19,116,143,144,210,155,4,43,63,29,219,175,222,16,46,224,12,47,110,18,133,193,96,7,119,109,13,164,226,124,45,213,196,142,10,75,56,94,78,194,85,69,125,118,192,83,28,173,163,153,64,199,200,9,197,113,190,137,14,136,59,15,188,184,2,207,158,22,68,225,176,151,121,50,97,41,159,112,72,208,217,205,135,180,187,123,172,130,147,181,60,24,122,84,166,79,131,51,220,58,138,57,212,92,167,171,203,1,114,148,76,221,127,140,23,65,104,215,99,52,91,17,55,53,174,201,98,189,218,105,40,120,179,157,81,229,44,211,103,102,186,11,145,87,108,89,185,170,149,169,141,227,3,20,216,152,128,32,223,37,202,5,67,8,165,95,90,25,21,88,115,183,100,160,106,195,178,191,36,33,204,74,214,77,54,129,80,39,26,168,101,61,86,34,150,27,49,107,93,35,111,154,132,228,161,134,139,117,70,82,156,73,38,206,66,48,146,126,42,30,198,177,162,31,62,71,0